p wcnf 120 1600
2 -117 -119 0
4 -117 120 0
2 -112 -118 0
2 -110 119 0
4 -109 -119 0
3 -109 -114 0
4 -108 -119 0
3 -108 -116 0
8 -108 -111 0
6 -107 -118 0
9 -107 -112 0
6 -104 -113 0
5 -104 107 0
1 -102 -119 0
8 -102 -114 0
8 -102 117 0
10 -100 -118 0
9 -100 104 0
7 -99 105 0
2 -98 -117 0
4 -98 -105 0
8 -98 101 0
7 -98 104 0
3 -98 111 0
4 -97 -119 0
4 -97 -104 0
6 -96 -102 0
7 -96 97 0
3 -95 110 0
7 -94 108 0
9 -94 112 0
3 -94 118 0
9 -93 -116 0
10 -93 105 0
4 -93 111 0
3 -93 113 0
2 -92 -97 0
8 -92 -96 0
5 -92 112 0
10 -91 -110 0
3 -91 -108 0
4 -91 93 0
6 -91 97 0
7 -91 100 0
4 -91 109 0
4 -91 118 0
5 -90 -118 0
4 -90 -117 0
3 -90 -107 0
2 -90 95 0
5 -90 103 0
5 -90 114 0
9 -89 -109 0
2 -89 -103 0
7 -89 -98 0
3 -88 -113 0
5 -88 -98 0
3 -88 103 0
9 -87 -108 0
6 -87 92 0
9 -86 -119 0
8 -86 90 0
9 -86 96 0
8 -86 97 0
8 -85 -95 0
3 -85 88 0
1 -85 90 0
9 -85 95 0
10 -84 -105 0
5 -84 -100 0
9 -84 -94 0
3 -84 -85 0
8 -84 96 0
5 -83 92 0
9 -83 110 0
2 -83 113 0
8 -83 118 0
5 -82 -97 0
5 -82 -91 0
9 -82 85 0
6 -81 -92 0
9 -81 86 0
5 -81 88 0
5 -81 91 0
1 -81 92 0
2 -81 112 0
7 -81 117 0
5 -80 -85 0
4 -80 84 0
6 -79 -80 0
1 -79 86 0
3 -78 -87 0
4 -78 -81 0
9 -78 91 0
2 -78 93 0
2 -78 118 0
2 -78 119 0
2 -78 120 0
1 -77 -114 0
2 -77 -107 0
6 -77 -79 0
9 -77 95 0
5 -77 104 0
4 -77 107 0
4 -77 109 0
4 -77 115 0
6 -76 -112 0
1 -76 -111 0
8 -76 -82 0
10 -76 -80 0
10 -76 93 0
3 -76 103 0
9 -76 104 0
4 -75 -97 0
7 -75 -93 0
9 -75 78 0
5 -75 87 0
4 -75 92 0
4 -75 100 0
8 -75 110 0
9 -74 -101 0
4 -74 -100 0
2 -74 -97 0
3 -74 -88 0
3 -74 -85 0
2 -74 79 0
4 -74 81 0
4 -74 93 0
3 -74 105 0
4 -74 112 0
6 -73 -95 0
8 -73 -83 0
3 -73 110 0
9 -73 113 0
2 -72 -111 0
6 -72 -80 0
3 -71 100 0
7 -71 116 0
6 -70 -117 0
10 -70 -101 0
6 -70 -84 0
6 -70 -71 0
3 -70 88 0
5 -70 99 0
9 -70 100 0
9 -70 108 0
4 -70 120 0
4 -69 -104 0
3 -69 -99 0
6 -69 -93 0
2 -69 -88 0
3 -69 -85 0
9 -69 -73 0
3 -69 -72 0
5 -69 73 0
3 -69 92 0
4 -69 102 0
8 -69 110 0
6 -69 116 0
5 -68 -105 0
2 -68 -97 0
2 -68 -80 0
3 -68 -75 0
5 -68 -73 0
10 -68 73 0
4 -68 88 0
10 -68 110 0
3 -67 -115 0
9 -67 -106 0
6 -67 -98 0
3 -67 -95 0
5 -67 -93 0
2 -67 -82 0
5 -67 -80 0
9 -67 -69 0
10 -66 -112 0
4 -66 -102 0
3 -66 -87 0
3 -66 -86 0
7 -66 -80 0
8 -66 116 0
5 -65 -95 0
8 -65 -85 0
8 -65 -83 0
6 -65 -66 0
3 -65 115 0
9 -64 -108 0
9 -64 86 0
1 -64 90 0
5 -64 104 0
4 -64 113 0
2 -63 -74 0
6 -63 71 0
6 -63 73 0
6 -63 90 0
6 -63 91 0
9 -62 -119 0
6 -62 -114 0
8 -62 -112 0
8 -62 -93 0
2 -62 -86 0
1 -62 -78 0
4 -62 -72 0
3 -61 -119 0
5 -61 -113 0
3 -61 -87 0
2 -61 63 0
8 -61 76 0
5 -61 82 0
5 -61 100 0
5 -60 -100 0
3 -60 -81 0
8 -60 67 0
3 -60 75 0
1 -60 87 0
4 -60 99 0
5 -60 105 0
9 -59 -116 0
3 -59 -91 0
5 -59 -65 0
5 -59 -62 0
6 -59 90 0
7 -59 93 0
1 -59 109 0
2 -59 116 0
3 -59 120 0
6 -58 -108 0
10 -58 -102 0
8 -58 -92 0
5 -58 66 0
8 -58 67 0
8 -58 104 0
5 -57 -86 0
1 -57 -78 0
10 -57 59 0
9 -57 61 0
3 -57 108 0
2 -57 120 0
8 -56 -118 0
7 -56 -115 0
6 -56 -89 0
3 -56 84 0
9 -56 99 0
4 -56 106 0
5 -56 119 0
9 -55 -86 0
7 -55 -77 0
9 -55 -69 0
9 -55 62 0
9 -54 -115 0
5 -54 -94 0
4 -54 -86 0
5 -54 87 0
2 -54 102 0
4 -54 113 0
6 -53 -111 0
4 -53 -101 0
10 -53 -100 0
6 -53 -62 0
1 -53 76 0
4 -53 80 0
4 -53 85 0
9 -53 118 0
8 -52 -120 0
4 -52 -118 0
9 -52 -113 0
8 -52 -106 0
6 -52 -72 0
10 -52 -62 0
5 -52 -55 0
3 -52 54 0
6 -52 60 0
7 -52 81 0
3 -52 83 0
9 -52 85 0
2 -52 104 0
2 -51 -97 0
6 -51 -91 0
10 -51 -52 0
10 -51 68 0
5 -51 69 0
5 -51 104 0
4 -50 -81 0
10 -50 -57 0
5 -50 65 0
7 -50 77 0
6 -50 119 0
8 -49 -109 0
6 -49 -103 0
2 -49 -97 0
9 -49 -87 0
10 -49 -79 0
4 -49 -61 0
7 -49 -53 0
8 -49 54 0
7 -49 68 0
6 -49 103 0
6 -48 -118 0
3 -48 -101 0
6 -48 -95 0
10 -48 -94 0
5 -48 -73 0
2 -48 -72 0
7 -48 -64 0
7 -48 -53 0
10 -48 57 0
7 -48 92 0
8 -47 -102 0
5 -47 -96 0
7 -47 -88 0
8 -47 -77 0
10 -47 -70 0
2 -47 -60 0
1 -47 56 0
9 -47 64 0
6 -47 72 0
7 -47 101 0
5 -46 -107 0
4 -46 -102 0
4 -46 -94 0
6 -46 66 0
3 -46 70 0
4 -46 95 0
9 -46 98 0
9 -46 113 0
2 -45 -116 0
6 -45 -71 0
6 -45 -66 0
7 -45 57 0
8 -45 81 0
2 -45 94 0
7 -45 101 0
3 -44 -110 0
3 -44 -101 0
3 -44 -86 0
9 -44 -63 0
2 -44 53 0
9 -44 67 0
7 -44 77 0
7 -44 84 0
6 -44 112 0
4 -43 -116 0
7 -43 -102 0
7 -43 -89 0
5 -43 46 0
6 -43 110 0
3 -42 -117 0
2 -42 -110 0
10 -42 -101 0
7 -42 -46 0
5 -42 58 0
5 -42 64 0
9 -42 87 0
7 -42 115 0
4 -41 -91 0
8 -41 -89 0
8 -41 -72 0
9 -41 -62 0
4 -41 -50 0
5 -41 64 0
7 -41 110 0
5 -40 -116 0
2 -40 -110 0
9 -40 -105 0
6 -40 -95 0
4 -40 -91 0
8 -40 -79 0
8 -40 -69 0
3 -40 -63 0
4 -40 62 0
5 -40 120 0
9 -39 -118 0
7 -39 -110 0
1 -39 -95 0
6 -39 -71 0
2 -39 -70 0
6 -39 48 0
8 -39 49 0
3 -38 -102 0
6 -38 -99 0
5 -38 -81 0
7 -38 -72 0
1 -38 42 0
4 -38 54 0
4 -38 71 0
4 -38 80 0
2 -38 88 0
2 -38 108 0
3 -37 -107 0
5 -37 -105 0
7 -37 -70 0
9 -37 48 0
8 -37 87 0
7 -37 103 0
8 -37 106 0
4 -37 111 0
1 -37 114 0
6 -36 -92 0
2 -36 -79 0
4 -36 -77 0
9 -36 -64 0
6 -36 -61 0
2 -36 -58 0
6 -36 58 0
6 -36 85 0
7 -36 93 0
7 -36 111 0
2 -36 119 0
5 -35 -105 0
9 -35 -86 0
7 -35 -54 0
9 -35 -47 0
5 -35 50 0
7 -35 65 0
3 -35 115 0
8 -34 -77 0
1 -34 -50 0
4 -34 -49 0
10 -34 -42 0
4 -34 -37 0
7 -34 40 0
6 -34 58 0
3 -34 61 0
5 -34 68 0
4 -34 69 0
10 -34 91 0
9 -33 -82 0
4 -33 -50 0
5 -33 57 0
10 -33 78 0
7 -33 91 0
4 -33 103 0
6 -33 113 0
8 -33 116 0
9 -32 -91 0
1 -32 -83 0
5 -32 -59 0
6 -32 -40 0
2 -32 -39 0
9 -32 -36 0
5 -32 36 0
8 -32 68 0
8 -32 85 0
9 -32 94 0
5 -31 -91 0
1 -31 -41 0
7 -31 44 0
5 -31 46 0
4 -31 72 0
7 -31 99 0
8 -30 -120 0
2 -30 -117 0
4 -30 -102 0
9 -30 -77 0
6 -30 -72 0
6 -30 -70 0
9 -30 -36 0
5 -30 32 0
9 -30 33 0
4 -30 47 0
5 -30 69 0
6 -30 82 0
7 -30 88 0
9 -30 95 0
4 -30 109 0
6 -30 120 0
10 -29 -119 0
7 -29 -117 0
2 -29 -109 0
2 -29 -108 0
6 -29 -102 0
6 -29 -98 0
9 -29 -88 0
5 -29 -72 0
5 -29 -53 0
3 -29 46 0
5 -29 53 0
2 -29 59 0
7 -29 68 0
8 -29 76 0
8 -29 78 0
5 -29 81 0
9 -29 107 0
2 -28 -106 0
4 -28 -88 0
5 -28 -81 0
7 -28 -62 0
3 -28 -32 0
9 -28 35 0
7 -28 62 0
7 -28 65 0
3 -27 -118 0
3 -27 -117 0
4 -27 -109 0
3 -27 -89 0
5 -27 -88 0
9 -27 -76 0
2 -27 -55 0
3 -27 39 0
2 -27 41 0
3 -27 47 0
8 -27 76 0
6 -27 90 0
2 -27 91 0
3 -27 102 0
1 -26 -114 0
5 -26 -85 0
7 -26 -81 0
2 -26 -48 0
2 -26 27 0
5 -26 79 0
10 -26 112 0
5 -25 -103 0
4 -25 -97 0
1 -25 -93 0
9 -25 -62 0
7 -25 -61 0
8 -25 63 0
2 -25 77 0
6 -25 84 0
4 -25 120 0
7 -24 -105 0
8 -24 -104 0
6 -24 -93 0
1 -24 -86 0
1 -24 -45 0
1 -24 -37 0
10 -24 -31 0
2 -24 74 0
3 -24 105 0
2 -23 -40 0
5 -23 -24 0
1 -23 28 0
7 -23 76 0
6 -23 100 0
3 -23 120 0
7 -22 -118 0
9 -22 -102 0
9 -22 -39 0
8 -22 33 0
1 -22 40 0
4 -22 46 0
8 -22 51 0
6 -22 53 0
6 -22 59 0
8 -22 60 0
4 -22 71 0
4 -22 73 0
6 -22 77 0
5 -22 113 0
9 -21 -91 0
9 -21 -90 0
2 -21 -68 0
7 -21 23 0
5 -21 51 0
3 -21 89 0
7 -21 106 0
5 -20 -113 0
3 -20 -100 0
9 -20 -98 0
7 -20 -79 0
3 -20 -43 0
3 -20 -30 0
7 -20 -23 0
9 -20 22 0
8 -20 45 0
9 -19 -87 0
6 -19 -70 0
8 -19 -62 0
7 -19 -56 0
5 -19 -30 0
8 -19 78 0
10 -19 99 0
3 -19 106 0
4 -18 -111 0
6 -18 -110 0
10 -18 -107 0
7 -18 -97 0
9 -18 37 0
6 -18 64 0
2 -18 77 0
8 -18 96 0
5 -18 107 0
3 -18 109 0
5 -17 -113 0
9 -17 -107 0
5 -17 -94 0
2 -17 -91 0
4 -17 -86 0
7 -17 -74 0
9 -17 -69 0
10 -17 -66 0
9 -17 49 0
3 -17 88 0
7 -17 96 0
8 -17 113 0
10 -17 116 0
5 -16 -44 0
5 -16 -32 0
8 -16 -18 0
3 -16 -17 0
8 -16 31 0
6 -16 63 0
3 -16 71 0
1 -15 -104 0
8 -15 -71 0
8 -15 -69 0
10 -15 30 0
5 -15 36 0
7 -15 48 0
6 -15 56 0
6 -15 64 0
4 -15 71 0
10 -15 77 0
8 -15 119 0
8 -14 -102 0
9 -14 -80 0
4 -14 -73 0
9 -14 43 0
3 -14 59 0
9 -13 -116 0
8 -13 -81 0
2 -13 -80 0
9 -13 -38 0
1 -13 32 0
8 -13 34 0
7 -13 43 0
1 -13 58 0
3 -13 59 0
2 -13 83 0
8 -13 88 0
5 -13 90 0
10 -12 -62 0
3 -12 -50 0
6 -12 -37 0
10 -12 -19 0
1 -12 19 0
4 -12 30 0
10 -12 51 0
6 -12 98 0
9 -12 109 0
5 -12 118 0
2 -11 -96 0
4 -11 -47 0
5 -11 23 0
9 -11 45 0
2 -11 68 0
4 -11 71 0
2 -11 74 0
10 -11 97 0
5 -11 117 0
2 -10 -118 0
8 -10 -79 0
6 -10 -58 0
10 -10 -21 0
8 -10 -12 0
4 -10 15 0
7 -10 18 0
8 -10 33 0
6 -10 101 0
8 -10 111 0
6 -9 -120 0
10 -9 -50 0
7 -9 -47 0
8 -9 -41 0
6 -9 -35 0
7 -9 -29 0
9 -9 15 0
9 -9 18 0
7 -9 27 0
4 -9 31 0
8 -9 97 0
2 -9 109 0
5 -8 -110 0
2 -8 -86 0
6 -8 -84 0
3 -8 -79 0
3 -8 -38 0
9 -8 -18 0
5 -8 -10 0
2 -8 45 0
4 -8 52 0
6 -8 63 0
9 -7 -120 0
9 -7 -86 0
5 -7 -59 0
7 -7 -57 0
3 -7 -25 0
2 -7 -12 0
6 -7 -8 0
8 -7 20 0
9 -7 33 0
1 -7 37 0
8 -7 41 0
7 -7 61 0
8 -7 63 0
4 -7 69 0
4 -7 102 0
7 -7 105 0
3 -6 -108 0
9 -6 -53 0
1 -6 -45 0
10 -6 -44 0
10 -6 -8 0
5 -6 35 0
1 -6 40 0
6 -6 71 0
7 -6 85 0
3 -6 105 0
4 -6 119 0
2 -5 -120 0
4 -5 -92 0
7 -5 -80 0
7 -5 -76 0
3 -5 -54 0
6 -5 -33 0
2 -5 -26 0
10 -5 -22 0
9 -5 -21 0
3 -5 36 0
5 -5 52 0
7 -5 57 0
2 -5 61 0
6 -5 62 0
5 -5 68 0
8 -4 -104 0
4 -4 -101 0
8 -4 -87 0
1 -4 -85 0
10 -4 -37 0
10 -4 -15 0
10 -4 -9 0
1 -4 9 0
9 -4 43 0
9 -4 62 0
5 -3 -91 0
9 -3 -89 0
5 -3 -57 0
2 -3 -29 0
2 -3 79 0
9 -3 80 0
3 -3 82 0
5 -3 105 0
6 -2 -116 0
8 -2 -105 0
8 -2 -84 0
2 -2 -72 0
9 -2 -48 0
7 -2 -35 0
10 -2 -5 0
3 -2 60 0
3 -2 64 0
7 -2 82 0
4 -2 115 0
7 -1 -119 0
2 -1 -114 0
2 -1 -106 0
1 -1 -90 0
9 -1 -67 0
2 -1 -59 0
1 -1 -25 0
9 -1 -18 0
2 -1 -8 0
1 -1 21 0
8 -1 34 0
1 -1 86 0
5 -1 107 0
8 -1 109 0
5 1 -106 0
6 1 -70 0
9 1 -45 0
4 1 -38 0
7 1 15 0
4 1 68 0
9 1 75 0
6 1 104 0
2 1 111 0
10 2 -120 0
5 2 -113 0
8 2 -111 0
10 2 -73 0
6 2 -51 0
10 2 -49 0
6 2 -48 0
9 2 -37 0
7 2 -19 0
7 2 6 0
10 2 16 0
7 2 17 0
6 2 18 0
2 2 36 0
7 2 57 0
5 2 84 0
3 2 85 0
7 2 93 0
3 2 102 0
3 2 104 0
2 3 -69 0
10 3 -65 0
7 3 -4 0
7 3 25 0
8 3 27 0
1 3 31 0
4 3 36 0
3 3 45 0
9 3 70 0
9 3 103 0
3 4 -110 0
9 4 -103 0
4 4 -97 0
1 4 -82 0
9 4 -75 0
9 4 -9 0
10 4 19 0
5 4 29 0
8 4 32 0
6 4 36 0
2 4 94 0
8 5 -117 0
3 5 -91 0
8 5 -80 0
9 5 -74 0
9 5 -49 0
3 5 6 0
2 5 21 0
7 5 57 0
5 5 62 0
4 5 63 0
8 5 76 0
5 5 95 0
1 5 113 0
5 6 12 0
3 6 14 0
1 6 35 0
8 6 58 0
5 6 84 0
10 7 -107 0
6 7 -99 0
7 7 -90 0
9 7 -86 0
9 7 21 0
7 7 28 0
8 7 37 0
8 7 59 0
7 7 79 0
3 7 104 0
6 7 109 0
3 8 -97 0
4 8 -59 0
5 8 -54 0
5 8 -42 0
2 8 -39 0
4 8 20 0
5 8 41 0
4 8 65 0
5 8 74 0
2 8 80 0
8 8 94 0
8 9 -112 0
8 9 -86 0
2 9 -83 0
8 9 -66 0
3 9 -54 0
4 9 -42 0
8 9 -18 0
10 9 12 0
8 9 32 0
8 9 38 0
6 9 74 0
5 9 79 0
7 9 93 0
5 10 -107 0
2 10 -50 0
5 10 -32 0
3 10 -18 0
8 10 12 0
7 10 24 0
8 10 32 0
10 10 104 0
1 10 107 0
3 11 -103 0
5 11 -73 0
3 11 -71 0
6 11 -46 0
9 11 -40 0
5 11 -36 0
1 11 18 0
9 11 30 0
3 11 37 0
8 11 83 0
8 11 86 0
5 11 105 0
6 12 -116 0
10 12 -93 0
8 12 -81 0
4 12 -59 0
10 12 18 0
6 12 36 0
3 12 52 0
6 12 55 0
1 12 72 0
9 12 75 0
10 12 77 0
2 12 91 0
4 12 95 0
3 12 104 0
9 12 109 0
10 13 -90 0
2 13 -61 0
8 13 -58 0
1 13 30 0
4 13 31 0
3 13 32 0
3 13 38 0
9 13 44 0
2 13 48 0
7 13 64 0
9 14 -117 0
2 14 -110 0
10 14 -108 0
7 14 -106 0
9 14 -65 0
4 14 -36 0
3 14 -25 0
9 14 21 0
2 14 33 0
6 14 58 0
8 14 95 0
7 15 -106 0
8 15 -101 0
4 15 -95 0
8 15 -92 0
7 15 -61 0
4 15 -29 0
8 15 -20 0
9 15 20 0
6 15 24 0
7 15 43 0
9 15 45 0
7 15 73 0
5 15 81 0
9 15 105 0
9 15 106 0
8 15 117 0
2 16 -119 0
8 16 -114 0
9 16 -101 0
9 16 -97 0
7 16 -91 0
9 16 -81 0
8 16 -67 0
4 16 -65 0
8 16 -29 0
2 16 -19 0
6 16 23 0
6 16 24 0
3 16 38 0
2 16 51 0
5 16 76 0
10 16 107 0
9 16 108 0
8 17 -113 0
7 17 -94 0
6 17 -85 0
2 17 -79 0
6 17 -73 0
5 17 -44 0
7 17 -28 0
3 17 -27 0
4 17 -21 0
4 17 -19 0
7 17 39 0
4 17 47 0
3 17 48 0
5 17 63 0
5 17 70 0
2 17 81 0
4 17 85 0
3 17 109 0
8 17 110 0
3 17 113 0
2 18 -114 0
2 18 -107 0
10 18 -106 0
3 18 -103 0
7 18 -89 0
6 18 -55 0
5 18 -22 0
9 18 27 0
1 18 50 0
5 18 57 0
8 18 77 0
8 18 91 0
3 19 -113 0
3 19 -101 0
9 19 -94 0
8 19 -62 0
8 19 -55 0
7 19 -50 0
10 19 -33 0
2 19 38 0
10 19 40 0
7 19 58 0
4 20 -99 0
3 20 -98 0
2 20 -59 0
8 20 -57 0
4 20 -55 0
4 20 -36 0
1 20 30 0
1 20 52 0
6 20 92 0
2 20 97 0
2 20 101 0
6 21 -98 0
4 21 -97 0
9 21 -93 0
3 21 -73 0
8 21 -65 0
7 21 -56 0
3 21 -47 0
3 21 -43 0
5 21 -31 0
1 21 -23 0
5 21 23 0
7 21 36 0
9 21 40 0
2 21 56 0
5 21 74 0
6 21 78 0
2 21 100 0
5 22 -114 0
6 22 -105 0
8 22 -95 0
9 22 -74 0
8 22 -58 0
9 22 39 0
7 22 43 0
1 22 56 0
3 22 58 0
7 22 68 0
2 22 90 0
9 22 95 0
8 23 -117 0
3 23 -107 0
5 23 -101 0
2 23 -81 0
2 23 -79 0
7 23 -43 0
9 23 -42 0
8 23 -37 0
8 23 31 0
2 23 44 0
2 23 56 0
9 23 58 0
6 23 60 0
9 23 77 0
8 23 99 0
7 23 101 0
4 23 106 0
4 24 -117 0
9 24 -73 0
8 24 -67 0
8 24 -34 0
7 24 39 0
7 24 40 0
6 24 66 0
5 24 95 0
3 24 96 0
6 25 -105 0
7 25 -99 0
10 25 -89 0
7 25 -80 0
6 25 -73 0
8 25 -41 0
9 25 42 0
10 25 57 0
9 25 60 0
9 25 92 0
6 25 101 0
8 26 -92 0
7 26 -74 0
5 26 40 0
9 26 71 0
8 26 78 0
3 26 86 0
5 26 96 0
7 26 111 0
1 27 -59 0
3 27 33 0
10 27 51 0
4 27 52 0
1 27 83 0
8 27 89 0
3 27 99 0
7 27 113 0
4 28 -115 0
8 28 -49 0
2 28 -43 0
7 28 -37 0
4 28 29 0
8 28 35 0
6 28 49 0
10 28 67 0
4 28 72 0
4 28 92 0
8 28 95 0
4 28 116 0
3 29 -112 0
8 29 -105 0
10 29 -95 0
10 29 -87 0
5 29 -61 0
4 29 -57 0
9 29 -53 0
3 29 -36 0
7 29 69 0
4 29 93 0
9 30 -88 0
7 30 -83 0
5 30 -63 0
9 30 -40 0
1 30 72 0
5 30 119 0
7 31 -115 0
3 31 -89 0
2 31 -68 0
1 31 -50 0
10 31 -44 0
3 31 46 0
7 31 50 0
4 31 93 0
1 31 103 0
3 31 116 0
3 32 -70 0
5 32 -46 0
6 32 36 0
1 32 41 0
8 32 58 0
8 32 72 0
8 32 81 0
8 32 91 0
8 32 99 0
3 32 109 0
2 33 -106 0
7 33 -84 0
5 33 -70 0
8 33 68 0
9 33 88 0
4 33 90 0
5 34 -112 0
5 34 -81 0
3 34 -49 0
6 34 -36 0
9 34 38 0
9 34 46 0
8 34 57 0
1 34 86 0
9 34 118 0
8 35 -99 0
3 35 -56 0
6 35 -46 0
1 35 59 0
4 35 70 0
8 35 78 0
3 35 80 0
7 35 95 0
4 36 -100 0
4 36 -87 0
6 36 -85 0
2 36 -52 0
2 36 -42 0
3 36 -40 0
9 36 75 0
4 36 90 0
4 36 105 0
5 36 108 0
8 36 115 0
2 36 116 0
5 37 -116 0
2 37 -112 0
7 37 -109 0
8 37 -105 0
4 37 -101 0
3 37 -92 0
7 37 -75 0
2 37 -74 0
10 37 -72 0
7 37 44 0
1 37 82 0
7 37 96 0
9 37 120 0
6 38 -119 0
8 38 -113 0
3 38 -102 0
3 38 -60 0
10 38 -57 0
9 38 -47 0
6 38 55 0
4 38 61 0
5 38 100 0
7 39 -114 0
5 39 -110 0
7 39 -109 0
6 39 -77 0
7 39 105 0
2 40 -96 0
1 40 -73 0
5 40 55 0
3 40 66 0
5 40 71 0
6 40 116 0
9 41 -98 0
3 41 -95 0
8 41 -88 0
1 41 59 0
9 41 65 0
10 41 68 0
1 41 70 0
6 41 79 0
10 41 85 0
7 41 94 0
6 41 114 0
6 41 117 0
5 41 119 0
8 42 -98 0
8 42 -93 0
5 42 -79 0
7 42 -64 0
4 42 -54 0
7 42 -53 0
2 42 -51 0
2 42 59 0
2 42 96 0
8 42 114 0
6 42 117 0
8 43 -119 0
8 43 -102 0
7 43 -53 0
3 43 61 0
1 43 62 0
2 43 66 0
8 43 76 0
9 44 -71 0
4 44 -45 0
6 44 53 0
10 44 64 0
3 45 -116 0
6 45 -115 0
10 45 -94 0
9 45 -93 0
6 45 85 0
7 45 97 0
4 45 99 0
1 45 102 0
2 45 115 0
2 45 118 0
9 46 -115 0
5 46 -113 0
8 46 -89 0
3 46 -88 0
3 46 -86 0
8 46 -85 0
3 46 -73 0
4 46 -51 0
6 46 58 0
9 46 69 0
2 46 100 0
4 46 112 0
6 47 -96 0
5 47 -93 0
5 47 -85 0
6 47 -79 0
2 47 52 0
4 47 69 0
9 48 -115 0
8 48 -103 0
3 48 -88 0
2 48 -80 0
4 48 50 0
3 48 66 0
1 48 75 0
8 48 86 0
9 48 88 0
4 48 98 0
9 48 100 0
9 49 -84 0
5 49 -77 0
7 49 -71 0
5 49 51 0
3 49 60 0
9 49 63 0
6 49 64 0
1 49 72 0
3 49 98 0
9 49 118 0
6 50 -110 0
2 50 -99 0
1 50 -81 0
10 50 -77 0
6 50 -62 0
5 50 53 0
4 50 77 0
3 50 114 0
6 51 -117 0
7 51 -95 0
2 51 -82 0
4 51 -60 0
9 51 60 0
3 51 68 0
7 51 69 0
2 51 79 0
3 51 102 0
5 52 -116 0
9 52 -114 0
7 52 -92 0
4 52 55 0
9 52 75 0
2 52 80 0
1 52 81 0
3 52 83 0
4 52 113 0
10 52 116 0
9 52 120 0
4 53 -90 0
3 53 -72 0
8 53 56 0
10 53 58 0
3 53 66 0
8 53 71 0
9 53 89 0
9 53 106 0
3 54 -120 0
3 54 -116 0
1 54 -98 0
8 54 56 0
9 54 85 0
2 54 96 0
2 54 106 0
8 55 -68 0
5 55 -64 0
8 55 -56 0
9 55 56 0
7 55 69 0
3 55 80 0
8 55 100 0
4 56 -119 0
6 56 -88 0
7 56 -66 0
5 56 -64 0
7 56 59 0
9 56 69 0
8 56 75 0
7 56 87 0
8 56 90 0
3 56 97 0
8 56 102 0
5 57 -93 0
2 57 -68 0
1 57 -66 0
3 57 -58 0
2 57 70 0
9 57 77 0
5 57 104 0
4 57 107 0
9 58 -102 0
4 58 -89 0
3 58 -84 0
1 58 -82 0
5 58 75 0
2 58 88 0
5 58 103 0
3 59 -103 0
10 59 -102 0
2 59 61 0
6 59 66 0
8 59 67 0
5 59 87 0
2 59 89 0
5 59 94 0
9 59 103 0
8 59 106 0
5 59 108 0
8 60 -114 0
4 60 -113 0
2 60 -108 0
9 60 -98 0
2 60 -89 0
7 60 -74 0
2 60 68 0
2 60 75 0
9 60 80 0
2 60 84 0
1 61 -117 0
5 61 -116 0
5 61 -91 0
9 61 -80 0
7 61 -69 0
8 61 -62 0
10 61 62 0
3 61 71 0
8 61 89 0
5 61 107 0
5 61 110 0
8 62 -97 0
6 62 -87 0
10 62 -69 0
6 62 64 0
2 62 65 0
2 62 91 0
2 62 100 0
1 62 118 0
8 63 -99 0
5 63 -95 0
8 63 -70 0
2 63 -69 0
7 63 76 0
7 64 -116 0
3 64 -109 0
3 64 -108 0
8 64 -95 0
5 64 -83 0
3 64 -78 0
9 64 -70 0
5 64 73 0
6 64 88 0
4 64 100 0
5 64 118 0
4 65 -106 0
2 65 -90 0
4 65 -72 0
5 65 -71 0
9 65 79 0
8 65 117 0
10 66 -113 0
7 66 -89 0
5 66 -75 0
9 66 75 0
4 66 78 0
5 66 82 0
10 66 84 0
5 66 85 0
5 67 -108 0
8 67 -79 0
9 67 82 0
3 68 -110 0
10 68 -108 0
6 68 -100 0
9 68 -90 0
3 68 73 0
8 68 74 0
6 68 115 0
7 69 -107 0
10 69 -70 0
5 69 78 0
2 69 87 0
6 69 90 0
8 69 114 0
6 69 119 0
9 70 -118 0
9 70 -109 0
9 70 -78 0
4 70 74 0
8 70 85 0
7 70 86 0
4 70 100 0
5 71 -83 0
2 71 -80 0
3 71 112 0
8 71 113 0
6 71 116 0
3 73 -105 0
3 73 -87 0
1 73 -86 0
1 73 74 0
2 73 80 0
3 73 81 0
10 74 -117 0
6 74 -114 0
2 74 -109 0
3 74 -97 0
4 74 -86 0
7 74 -81 0
9 74 76 0
4 74 90 0
2 75 -112 0
10 75 -77 0
9 75 107 0
9 76 -112 0
5 76 -105 0
7 76 -86 0
8 76 -77 0
4 76 80 0
1 76 83 0
6 76 112 0
2 77 -118 0
4 77 -95 0
2 77 79 0
3 78 -108 0
6 78 -90 0
9 78 79 0
8 78 98 0
8 78 104 0
2 79 -100 0
8 79 -93 0
8 79 98 0
2 79 105 0
1 79 112 0
8 80 86 0
7 80 103 0
2 81 -101 0
9 81 85 0
2 81 99 0
9 82 -96 0
8 82 -95 0
5 82 86 0
10 82 88 0
7 82 90 0
3 82 99 0
9 82 106 0
3 83 -114 0
10 83 -87 0
8 83 -84 0
6 83 96 0
1 84 -110 0
4 84 -107 0
7 84 92 0
4 84 94 0
5 84 97 0
9 84 109 0
9 85 -93 0
3 85 92 0
7 86 -119 0
7 86 -92 0
4 86 89 0
5 86 94 0
5 87 -114 0
5 87 -110 0
6 87 -103 0
3 87 120 0
3 88 -111 0
7 88 -107 0
2 88 -102 0
3 88 -97 0
6 88 101 0
9 88 102 0
7 88 115 0
6 89 -104 0
6 90 -114 0
9 90 -104 0
5 90 109 0
8 90 116 0
9 91 -114 0
3 91 103 0
4 91 113 0
9 91 119 0
6 92 -117 0
1 92 -112 0
4 92 -111 0
9 92 -107 0
10 92 100 0
3 92 104 0
3 93 -98 0
7 94 -112 0
9 95 -103 0
6 95 98 0
2 96 -114 0
4 96 -112 0
10 96 -106 0
7 96 115 0
5 97 -112 0
2 98 116 0
4 99 -113 0
6 99 -110 0
4 100 -119 0
9 100 -116 0
5 101 -114 0
1 101 -104 0
5 101 -102 0
10 101 108 0
10 103 -119 0
9 103 111 0
8 104 -120 0
9 104 115 0
1 105 -106 0
2 105 113 0
8 106 -120 0
6 106 -119 0
2 107 -118 0
2 107 110 0
5 107 117 0
2 109 111 0
3 109 119 0
7 110 -113 0
8 111 -118 0
2 114 -115 0
2 115 -117 0
9 115 116 0
5 117 119 0
2 118 -120 0
